0000000000000000
0000000000000000
0000000000000000
0011111111111100
0011111111111100
0000001111111000
0000000111110000
0000000011110000
0000000001110000
0000000001110000
0000000001110000
0000000001110000
0000000001110000
0000000000100000
0000000000000000
0000000000000000